proyfinal/src/viki/013/experimentInOfficeAgust.take6.output/1e09c26f-d4d7-429f-be37-8ff564de2282.als.dat
{'cnf.clauses': '118081',
 'cnf.totvars': '69608',
 'conflict literals': '1',
 'conflicts': '2',
 'decisions': '424',
 'memused.mb': '14.13',
 'outcome': 'UNSAT',
 'propagations': '18928',
 'restarts': '1',
 'solver.msecs': 26,
 'task.msecs': 71}
