proyfinal/src/viki/013/experimentInOfficeAgust.take6.output/1e09c26f-d4d7-429f-be37-8ff564de2282.als.out
Reading from standard input... Use '--help' for help.
============================[ Problem Statistics ]=============================
|                                                                             |
|  Number of variables:         69608                                         |
|  Number of clauses:          118081                                         |
|  Parse time:                   0.02 s                                       |
|                                                                             |
============================[ Search Statistics ]==============================
| Conflicts |          ORIGINAL         |          LEARNT          | Progress |
|           |    Vars  Clauses Literals |    Limit  Clauses Lit/Cl |          |
===============================================================================
===============================================================================
restarts              : 1
conflicts             : 2              (76 /sec)
decisions             : 424            (0.00 % random) (16122 /sec)
propagations          : 18928          (719723 /sec)
conflict literals     : 1              (0.00 % deleted)
Memory used           : 14.13 MB
CPU time              : 0.026299 s

UNSATISFIABLE
